proyfinal/src/viki/013/experimentInOfficeAgust.take6.output/5df29a50-4e03-4a82-a43c-d8d435461f96.als.out
Reading from standard input... Use '--help' for help.
============================[ Problem Statistics ]=============================
|                                                                             |
|  Number of variables:         87638                                         |
|  Number of clauses:          161767                                         |
|  Parse time:                   0.03 s                                       |
|                                                                             |
============================[ Search Statistics ]==============================
| Conflicts |          ORIGINAL         |          LEARNT          | Progress |
|           |    Vars  Clauses Literals |    Limit  Clauses Lit/Cl |          |
===============================================================================
|       100 |   62799   106665   266514 |    39110      100     10 | 28.343 % |
|       250 |   62799   106665   266514 |    43021      250     24 | 28.343 % |
|       475 |   62799   106665   266514 |    47323      475     52 | 28.343 % |
|       812 |   62799   106665   266514 |    52056      812     61 | 28.343 % |
|      1318 |   62799   106665   266514 |    57261     1318     96 | 28.343 % |
|      2077 |   62799   106665   266514 |    62987     2077    103 | 28.343 % |
|      3216 |   62798   106621   266424 |    69286     3209     89 | 28.344 % |
|      4924 |   62761   106471   266073 |    76215     4915     87 | 28.386 % |
|      7486 |   62743   106397   265902 |    83836     7476     96 | 28.407 % |
|     11330 |   62716   106287   265645 |    92220    10979    113 | 28.437 % |
|     17096 |   62690   106144   265333 |   101442    16305    107 | 28.467 % |
===============================================================================
restarts              : 63
conflicts             : 17421          (6818 /sec)
decisions             : 53735          (0.00 % random) (21030 /sec)
propagations          : 24753920       (9688017 /sec)
conflict literals     : 1834885        (51.39 % deleted)
Memory used           : 31.88 MB
CPU time              : 2.55511 s

UNSATISFIABLE
